(set-logic QF_LRA)
(declare-fun X0 () Real )
(declare-fun Y0 () Real )
(declare-fun X1 () Real )
(declare-fun Y1 () Real )
(declare-fun X2 () Real )
(declare-fun Y2 () Real )
(declare-fun X3 () Real )
(declare-fun Y3 () Real )
(declare-fun X4 () Real )
(declare-fun Y4 () Real )
(declare-fun X5 () Real )
(declare-fun Y5 () Real )
(declare-fun X6 () Real )
(declare-fun Y6 () Real )
(declare-fun X7 () Real )
(declare-fun Y7 () Real )
(declare-fun X8 () Real )
(declare-fun Y8 () Real )
(declare-fun X9 () Real )
(declare-fun Y9 () Real )
(declare-fun X10 () Real )
(declare-fun Y10 () Real )
(declare-fun X11 () Real )
(declare-fun Y11 () Real )
(declare-fun X12 () Real )
(declare-fun Y12 () Real )
(declare-fun X13 () Real )
(declare-fun Y13 () Real )
(declare-fun X14 () Real )
(declare-fun Y14 () Real )
(declare-fun Z () Real )
(declare-fun k () Real )
(assert (let
(( $goal (>= Z k) ))
(let
((
$phi ( and 
( or ( <= ( + X0 77 ) X1 )  ( <= ( + X1 76 ) X0 )  ( <= ( + Y0 8 ) Y1 )  ( <= ( + Y1 94 ) Y0 )  )
( or ( <= ( + X0 77 ) X2 )  ( <= ( + X2 59 ) X0 )  ( <= ( + Y0 8 ) Y2 )  ( <= ( + Y2 50 ) Y0 )  )
( or ( <= ( + X0 77 ) X3 )  ( <= ( + X3 22 ) X0 )  ( <= ( + Y0 8 ) Y3 )  ( <= ( + Y3 70 ) Y0 )  )
( or ( <= ( + X0 77 ) X4 )  ( <= ( + X4 92 ) X0 )  ( <= ( + Y0 8 ) Y4 )  ( <= ( + Y4 91 ) Y0 )  )
( or ( <= ( + X0 77 ) X5 )  ( <= ( + X5 57 ) X0 )  ( <= ( + Y0 8 ) Y5 )  ( <= ( + Y5 57 ) Y0 )  )
( or ( <= ( + X0 77 ) X6 )  ( <= ( + X6 38 ) X0 )  ( <= ( + Y0 8 ) Y6 )  ( <= ( + Y6 81 ) Y0 )  )
( or ( <= ( + X0 77 ) X7 )  ( <= ( + X7 9 ) X0 )  ( <= ( + Y0 8 ) Y7 )  ( <= ( + Y7 46 ) Y0 )  )
( or ( <= ( + X0 77 ) X8 )  ( <= ( + X8 40 ) X0 )  ( <= ( + Y0 8 ) Y8 )  ( <= ( + Y8 23 ) Y0 )  )
( or ( <= ( + X0 77 ) X9 )  ( <= ( + X9 35 ) X0 )  ( <= ( + Y0 8 ) Y9 )  ( <= ( + Y9 23 ) Y0 )  )
( or ( <= ( + X0 77 ) X10 )  ( <= ( + X10 23 ) X0 )  ( <= ( + Y0 8 ) Y10 )  ( <= ( + Y10 68 ) Y0 )  )
( or ( <= ( + X0 77 ) X11 )  ( <= ( + X11 12 ) X0 )  ( <= ( + Y0 8 ) Y11 )  ( <= ( + Y11 47 ) Y0 )  )
( or ( <= ( + X0 77 ) X12 )  ( <= ( + X12 47 ) X0 )  ( <= ( + Y0 8 ) Y12 )  ( <= ( + Y12 99 ) Y0 )  )
( or ( <= ( + X0 77 ) X13 )  ( <= ( + X13 34 ) X0 )  ( <= ( + Y0 8 ) Y13 )  ( <= ( + Y13 37 ) Y0 )  )
( or ( <= ( + X0 77 ) X14 )  ( <= ( + X14 12 ) X0 )  ( <= ( + Y0 8 ) Y14 )  ( <= ( + Y14 32 ) Y0 )  )
( or ( <= ( + X1 76 ) X2 )  ( <= ( + X2 59 ) X1 )  ( <= ( + Y1 94 ) Y2 )  ( <= ( + Y2 50 ) Y1 )  )
( or ( <= ( + X1 76 ) X3 )  ( <= ( + X3 22 ) X1 )  ( <= ( + Y1 94 ) Y3 )  ( <= ( + Y3 70 ) Y1 )  )
( or ( <= ( + X1 76 ) X4 )  ( <= ( + X4 92 ) X1 )  ( <= ( + Y1 94 ) Y4 )  ( <= ( + Y4 91 ) Y1 )  )
( or ( <= ( + X1 76 ) X5 )  ( <= ( + X5 57 ) X1 )  ( <= ( + Y1 94 ) Y5 )  ( <= ( + Y5 57 ) Y1 )  )
( or ( <= ( + X1 76 ) X6 )  ( <= ( + X6 38 ) X1 )  ( <= ( + Y1 94 ) Y6 )  ( <= ( + Y6 81 ) Y1 )  )
( or ( <= ( + X1 76 ) X7 )  ( <= ( + X7 9 ) X1 )  ( <= ( + Y1 94 ) Y7 )  ( <= ( + Y7 46 ) Y1 )  )
( or ( <= ( + X1 76 ) X8 )  ( <= ( + X8 40 ) X1 )  ( <= ( + Y1 94 ) Y8 )  ( <= ( + Y8 23 ) Y1 )  )
( or ( <= ( + X1 76 ) X9 )  ( <= ( + X9 35 ) X1 )  ( <= ( + Y1 94 ) Y9 )  ( <= ( + Y9 23 ) Y1 )  )
( or ( <= ( + X1 76 ) X10 )  ( <= ( + X10 23 ) X1 )  ( <= ( + Y1 94 ) Y10 )  ( <= ( + Y10 68 ) Y1 )  )
( or ( <= ( + X1 76 ) X11 )  ( <= ( + X11 12 ) X1 )  ( <= ( + Y1 94 ) Y11 )  ( <= ( + Y11 47 ) Y1 )  )
( or ( <= ( + X1 76 ) X12 )  ( <= ( + X12 47 ) X1 )  ( <= ( + Y1 94 ) Y12 )  ( <= ( + Y12 99 ) Y1 )  )
( or ( <= ( + X1 76 ) X13 )  ( <= ( + X13 34 ) X1 )  ( <= ( + Y1 94 ) Y13 )  ( <= ( + Y13 37 ) Y1 )  )
( or ( <= ( + X1 76 ) X14 )  ( <= ( + X14 12 ) X1 )  ( <= ( + Y1 94 ) Y14 )  ( <= ( + Y14 32 ) Y1 )  )
( or ( <= ( + X2 59 ) X3 )  ( <= ( + X3 22 ) X2 )  ( <= ( + Y2 50 ) Y3 )  ( <= ( + Y3 70 ) Y2 )  )
( or ( <= ( + X2 59 ) X4 )  ( <= ( + X4 92 ) X2 )  ( <= ( + Y2 50 ) Y4 )  ( <= ( + Y4 91 ) Y2 )  )
( or ( <= ( + X2 59 ) X5 )  ( <= ( + X5 57 ) X2 )  ( <= ( + Y2 50 ) Y5 )  ( <= ( + Y5 57 ) Y2 )  )
( or ( <= ( + X2 59 ) X6 )  ( <= ( + X6 38 ) X2 )  ( <= ( + Y2 50 ) Y6 )  ( <= ( + Y6 81 ) Y2 )  )
( or ( <= ( + X2 59 ) X7 )  ( <= ( + X7 9 ) X2 )  ( <= ( + Y2 50 ) Y7 )  ( <= ( + Y7 46 ) Y2 )  )
( or ( <= ( + X2 59 ) X8 )  ( <= ( + X8 40 ) X2 )  ( <= ( + Y2 50 ) Y8 )  ( <= ( + Y8 23 ) Y2 )  )
( or ( <= ( + X2 59 ) X9 )  ( <= ( + X9 35 ) X2 )  ( <= ( + Y2 50 ) Y9 )  ( <= ( + Y9 23 ) Y2 )  )
( or ( <= ( + X2 59 ) X10 )  ( <= ( + X10 23 ) X2 )  ( <= ( + Y2 50 ) Y10 )  ( <= ( + Y10 68 ) Y2 )  )
( or ( <= ( + X2 59 ) X11 )  ( <= ( + X11 12 ) X2 )  ( <= ( + Y2 50 ) Y11 )  ( <= ( + Y11 47 ) Y2 )  )
( or ( <= ( + X2 59 ) X12 )  ( <= ( + X12 47 ) X2 )  ( <= ( + Y2 50 ) Y12 )  ( <= ( + Y12 99 ) Y2 )  )
( or ( <= ( + X2 59 ) X13 )  ( <= ( + X13 34 ) X2 )  ( <= ( + Y2 50 ) Y13 )  ( <= ( + Y13 37 ) Y2 )  )
( or ( <= ( + X2 59 ) X14 )  ( <= ( + X14 12 ) X2 )  ( <= ( + Y2 50 ) Y14 )  ( <= ( + Y14 32 ) Y2 )  )
( or ( <= ( + X3 22 ) X4 )  ( <= ( + X4 92 ) X3 )  ( <= ( + Y3 70 ) Y4 )  ( <= ( + Y4 91 ) Y3 )  )
( or ( <= ( + X3 22 ) X5 )  ( <= ( + X5 57 ) X3 )  ( <= ( + Y3 70 ) Y5 )  ( <= ( + Y5 57 ) Y3 )  )
( or ( <= ( + X3 22 ) X6 )  ( <= ( + X6 38 ) X3 )  ( <= ( + Y3 70 ) Y6 )  ( <= ( + Y6 81 ) Y3 )  )
( or ( <= ( + X3 22 ) X7 )  ( <= ( + X7 9 ) X3 )  ( <= ( + Y3 70 ) Y7 )  ( <= ( + Y7 46 ) Y3 )  )
( or ( <= ( + X3 22 ) X8 )  ( <= ( + X8 40 ) X3 )  ( <= ( + Y3 70 ) Y8 )  ( <= ( + Y8 23 ) Y3 )  )
( or ( <= ( + X3 22 ) X9 )  ( <= ( + X9 35 ) X3 )  ( <= ( + Y3 70 ) Y9 )  ( <= ( + Y9 23 ) Y3 )  )
( or ( <= ( + X3 22 ) X10 )  ( <= ( + X10 23 ) X3 )  ( <= ( + Y3 70 ) Y10 )  ( <= ( + Y10 68 ) Y3 )  )
( or ( <= ( + X3 22 ) X11 )  ( <= ( + X11 12 ) X3 )  ( <= ( + Y3 70 ) Y11 )  ( <= ( + Y11 47 ) Y3 )  )
( or ( <= ( + X3 22 ) X12 )  ( <= ( + X12 47 ) X3 )  ( <= ( + Y3 70 ) Y12 )  ( <= ( + Y12 99 ) Y3 )  )
( or ( <= ( + X3 22 ) X13 )  ( <= ( + X13 34 ) X3 )  ( <= ( + Y3 70 ) Y13 )  ( <= ( + Y13 37 ) Y3 )  )
( or ( <= ( + X3 22 ) X14 )  ( <= ( + X14 12 ) X3 )  ( <= ( + Y3 70 ) Y14 )  ( <= ( + Y14 32 ) Y3 )  )
( or ( <= ( + X4 92 ) X5 )  ( <= ( + X5 57 ) X4 )  ( <= ( + Y4 91 ) Y5 )  ( <= ( + Y5 57 ) Y4 )  )
( or ( <= ( + X4 92 ) X6 )  ( <= ( + X6 38 ) X4 )  ( <= ( + Y4 91 ) Y6 )  ( <= ( + Y6 81 ) Y4 )  )
( or ( <= ( + X4 92 ) X7 )  ( <= ( + X7 9 ) X4 )  ( <= ( + Y4 91 ) Y7 )  ( <= ( + Y7 46 ) Y4 )  )
( or ( <= ( + X4 92 ) X8 )  ( <= ( + X8 40 ) X4 )  ( <= ( + Y4 91 ) Y8 )  ( <= ( + Y8 23 ) Y4 )  )
( or ( <= ( + X4 92 ) X9 )  ( <= ( + X9 35 ) X4 )  ( <= ( + Y4 91 ) Y9 )  ( <= ( + Y9 23 ) Y4 )  )
( or ( <= ( + X4 92 ) X10 )  ( <= ( + X10 23 ) X4 )  ( <= ( + Y4 91 ) Y10 )  ( <= ( + Y10 68 ) Y4 )  )
( or ( <= ( + X4 92 ) X11 )  ( <= ( + X11 12 ) X4 )  ( <= ( + Y4 91 ) Y11 )  ( <= ( + Y11 47 ) Y4 )  )
( or ( <= ( + X4 92 ) X12 )  ( <= ( + X12 47 ) X4 )  ( <= ( + Y4 91 ) Y12 )  ( <= ( + Y12 99 ) Y4 )  )
( or ( <= ( + X4 92 ) X13 )  ( <= ( + X13 34 ) X4 )  ( <= ( + Y4 91 ) Y13 )  ( <= ( + Y13 37 ) Y4 )  )
( or ( <= ( + X4 92 ) X14 )  ( <= ( + X14 12 ) X4 )  ( <= ( + Y4 91 ) Y14 )  ( <= ( + Y14 32 ) Y4 )  )
( or ( <= ( + X5 57 ) X6 )  ( <= ( + X6 38 ) X5 )  ( <= ( + Y5 57 ) Y6 )  ( <= ( + Y6 81 ) Y5 )  )
( or ( <= ( + X5 57 ) X7 )  ( <= ( + X7 9 ) X5 )  ( <= ( + Y5 57 ) Y7 )  ( <= ( + Y7 46 ) Y5 )  )
( or ( <= ( + X5 57 ) X8 )  ( <= ( + X8 40 ) X5 )  ( <= ( + Y5 57 ) Y8 )  ( <= ( + Y8 23 ) Y5 )  )
( or ( <= ( + X5 57 ) X9 )  ( <= ( + X9 35 ) X5 )  ( <= ( + Y5 57 ) Y9 )  ( <= ( + Y9 23 ) Y5 )  )
( or ( <= ( + X5 57 ) X10 )  ( <= ( + X10 23 ) X5 )  ( <= ( + Y5 57 ) Y10 )  ( <= ( + Y10 68 ) Y5 )  )
( or ( <= ( + X5 57 ) X11 )  ( <= ( + X11 12 ) X5 )  ( <= ( + Y5 57 ) Y11 )  ( <= ( + Y11 47 ) Y5 )  )
( or ( <= ( + X5 57 ) X12 )  ( <= ( + X12 47 ) X5 )  ( <= ( + Y5 57 ) Y12 )  ( <= ( + Y12 99 ) Y5 )  )
( or ( <= ( + X5 57 ) X13 )  ( <= ( + X13 34 ) X5 )  ( <= ( + Y5 57 ) Y13 )  ( <= ( + Y13 37 ) Y5 )  )
( or ( <= ( + X5 57 ) X14 )  ( <= ( + X14 12 ) X5 )  ( <= ( + Y5 57 ) Y14 )  ( <= ( + Y14 32 ) Y5 )  )
( or ( <= ( + X6 38 ) X7 )  ( <= ( + X7 9 ) X6 )  ( <= ( + Y6 81 ) Y7 )  ( <= ( + Y7 46 ) Y6 )  )
( or ( <= ( + X6 38 ) X8 )  ( <= ( + X8 40 ) X6 )  ( <= ( + Y6 81 ) Y8 )  ( <= ( + Y8 23 ) Y6 )  )
( or ( <= ( + X6 38 ) X9 )  ( <= ( + X9 35 ) X6 )  ( <= ( + Y6 81 ) Y9 )  ( <= ( + Y9 23 ) Y6 )  )
( or ( <= ( + X6 38 ) X10 )  ( <= ( + X10 23 ) X6 )  ( <= ( + Y6 81 ) Y10 )  ( <= ( + Y10 68 ) Y6 )  )
( or ( <= ( + X6 38 ) X11 )  ( <= ( + X11 12 ) X6 )  ( <= ( + Y6 81 ) Y11 )  ( <= ( + Y11 47 ) Y6 )  )
( or ( <= ( + X6 38 ) X12 )  ( <= ( + X12 47 ) X6 )  ( <= ( + Y6 81 ) Y12 )  ( <= ( + Y12 99 ) Y6 )  )
( or ( <= ( + X6 38 ) X13 )  ( <= ( + X13 34 ) X6 )  ( <= ( + Y6 81 ) Y13 )  ( <= ( + Y13 37 ) Y6 )  )
( or ( <= ( + X6 38 ) X14 )  ( <= ( + X14 12 ) X6 )  ( <= ( + Y6 81 ) Y14 )  ( <= ( + Y14 32 ) Y6 )  )
( or ( <= ( + X7 9 ) X8 )  ( <= ( + X8 40 ) X7 )  ( <= ( + Y7 46 ) Y8 )  ( <= ( + Y8 23 ) Y7 )  )
( or ( <= ( + X7 9 ) X9 )  ( <= ( + X9 35 ) X7 )  ( <= ( + Y7 46 ) Y9 )  ( <= ( + Y9 23 ) Y7 )  )
( or ( <= ( + X7 9 ) X10 )  ( <= ( + X10 23 ) X7 )  ( <= ( + Y7 46 ) Y10 )  ( <= ( + Y10 68 ) Y7 )  )
( or ( <= ( + X7 9 ) X11 )  ( <= ( + X11 12 ) X7 )  ( <= ( + Y7 46 ) Y11 )  ( <= ( + Y11 47 ) Y7 )  )
( or ( <= ( + X7 9 ) X12 )  ( <= ( + X12 47 ) X7 )  ( <= ( + Y7 46 ) Y12 )  ( <= ( + Y12 99 ) Y7 )  )
( or ( <= ( + X7 9 ) X13 )  ( <= ( + X13 34 ) X7 )  ( <= ( + Y7 46 ) Y13 )  ( <= ( + Y13 37 ) Y7 )  )
( or ( <= ( + X7 9 ) X14 )  ( <= ( + X14 12 ) X7 )  ( <= ( + Y7 46 ) Y14 )  ( <= ( + Y14 32 ) Y7 )  )
( or ( <= ( + X8 40 ) X9 )  ( <= ( + X9 35 ) X8 )  ( <= ( + Y8 23 ) Y9 )  ( <= ( + Y9 23 ) Y8 )  )
( or ( <= ( + X8 40 ) X10 )  ( <= ( + X10 23 ) X8 )  ( <= ( + Y8 23 ) Y10 )  ( <= ( + Y10 68 ) Y8 )  )
( or ( <= ( + X8 40 ) X11 )  ( <= ( + X11 12 ) X8 )  ( <= ( + Y8 23 ) Y11 )  ( <= ( + Y11 47 ) Y8 )  )
( or ( <= ( + X8 40 ) X12 )  ( <= ( + X12 47 ) X8 )  ( <= ( + Y8 23 ) Y12 )  ( <= ( + Y12 99 ) Y8 )  )
( or ( <= ( + X8 40 ) X13 )  ( <= ( + X13 34 ) X8 )  ( <= ( + Y8 23 ) Y13 )  ( <= ( + Y13 37 ) Y8 )  )
( or ( <= ( + X8 40 ) X14 )  ( <= ( + X14 12 ) X8 )  ( <= ( + Y8 23 ) Y14 )  ( <= ( + Y14 32 ) Y8 )  )
( or ( <= ( + X9 35 ) X10 )  ( <= ( + X10 23 ) X9 )  ( <= ( + Y9 23 ) Y10 )  ( <= ( + Y10 68 ) Y9 )  )
( or ( <= ( + X9 35 ) X11 )  ( <= ( + X11 12 ) X9 )  ( <= ( + Y9 23 ) Y11 )  ( <= ( + Y11 47 ) Y9 )  )
( or ( <= ( + X9 35 ) X12 )  ( <= ( + X12 47 ) X9 )  ( <= ( + Y9 23 ) Y12 )  ( <= ( + Y12 99 ) Y9 )  )
( or ( <= ( + X9 35 ) X13 )  ( <= ( + X13 34 ) X9 )  ( <= ( + Y9 23 ) Y13 )  ( <= ( + Y13 37 ) Y9 )  )
( or ( <= ( + X9 35 ) X14 )  ( <= ( + X14 12 ) X9 )  ( <= ( + Y9 23 ) Y14 )  ( <= ( + Y14 32 ) Y9 )  )
( or ( <= ( + X10 23 ) X11 )  ( <= ( + X11 12 ) X10 )  ( <= ( + Y10 68 ) Y11 )  ( <= ( + Y11 47 ) Y10 )  )
( or ( <= ( + X10 23 ) X12 )  ( <= ( + X12 47 ) X10 )  ( <= ( + Y10 68 ) Y12 )  ( <= ( + Y12 99 ) Y10 )  )
( or ( <= ( + X10 23 ) X13 )  ( <= ( + X13 34 ) X10 )  ( <= ( + Y10 68 ) Y13 )  ( <= ( + Y13 37 ) Y10 )  )
( or ( <= ( + X10 23 ) X14 )  ( <= ( + X14 12 ) X10 )  ( <= ( + Y10 68 ) Y14 )  ( <= ( + Y14 32 ) Y10 )  )
( or ( <= ( + X11 12 ) X12 )  ( <= ( + X12 47 ) X11 )  ( <= ( + Y11 47 ) Y12 )  ( <= ( + Y12 99 ) Y11 )  )
( or ( <= ( + X11 12 ) X13 )  ( <= ( + X13 34 ) X11 )  ( <= ( + Y11 47 ) Y13 )  ( <= ( + Y13 37 ) Y11 )  )
( or ( <= ( + X11 12 ) X14 )  ( <= ( + X14 12 ) X11 )  ( <= ( + Y11 47 ) Y14 )  ( <= ( + Y14 32 ) Y11 )  )
( or ( <= ( + X12 47 ) X13 )  ( <= ( + X13 34 ) X12 )  ( <= ( + Y12 99 ) Y13 )  ( <= ( + Y13 37 ) Y12 )  )
( or ( <= ( + X12 47 ) X14 )  ( <= ( + X14 12 ) X12 )  ( <= ( + Y12 99 ) Y14 )  ( <= ( + Y14 32 ) Y12 )  )
( or ( <= ( + X13 34 ) X14 )  ( <= ( + X14 12 ) X13 )  ( <= ( + Y13 37 ) Y14 )  ( <= ( + Y14 32 ) Y13 )  )
( >= X0 0)
( <= ( + X0 77) Z)
( >= Y0 0)
( <= ( + Y0 8 ) 100)
( >= X1 0)
( <= ( + X1 76) Z)
( >= Y1 0)
( <= ( + Y1 94 ) 100)
( >= X2 0)
( <= ( + X2 59) Z)
( >= Y2 0)
( <= ( + Y2 50 ) 100)
( >= X3 0)
( <= ( + X3 22) Z)
( >= Y3 0)
( <= ( + Y3 70 ) 100)
( >= X4 0)
( <= ( + X4 92) Z)
( >= Y4 0)
( <= ( + Y4 91 ) 100)
( >= X5 0)
( <= ( + X5 57) Z)
( >= Y5 0)
( <= ( + Y5 57 ) 100)
( >= X6 0)
( <= ( + X6 38) Z)
( >= Y6 0)
( <= ( + Y6 81 ) 100)
( >= X7 0)
( <= ( + X7 9) Z)
( >= Y7 0)
( <= ( + Y7 46 ) 100)
( >= X8 0)
( <= ( + X8 40) Z)
( >= Y8 0)
( <= ( + Y8 23 ) 100)
( >= X9 0)
( <= ( + X9 35) Z)
( >= Y9 0)
( <= ( + Y9 23 ) 100)
( >= X10 0)
( <= ( + X10 23) Z)
( >= Y10 0)
( <= ( + Y10 68 ) 100)
( >= X11 0)
( <= ( + X11 12) Z)
( >= Y11 0)
( <= ( + Y11 47 ) 100)
( >= X12 0)
( <= ( + X12 47) Z)
( >= Y12 0)
( <= ( + Y12 99 ) 100)
( >= X13 0)
( <= ( + X13 34) Z)
( >= Y13 0)
( <= ( + Y13 37 ) 100)
( >= X14 0)
( <= ( + X14 12) Z)
( >= Y14 0)
( <= ( + Y14 32 ) 100)
) )
)(=> $phi $goal))))